************************************************************************
file with basedata            : mm10_.bas
initial value random generator: 826915373
************************************************************************
projects                      :  1
jobs (incl. supersource/sink ):  12
horizon                       :  70
RESOURCES
  - renewable                 :  2   R
  - nonrenewable              :  2   N
  - doubly constrained        :  0   D
************************************************************************
PROJECT INFORMATION:
pronr.  #jobs rel.date duedate tardcost  MPM-Time
    1     10      0        8        8        8
************************************************************************
PRECEDENCE RELATIONS:
jobnr.    #modes  #successors   successors
   1        1          3           2   3   4
   2        3          3           8   9  10
   3        3          3           5   7  11
   4        3          1           6
   5        3          2           9  10
   6        3          1          10
   7        3          1           9
   8        3          1          11
   9        3          1          12
  10        3          1          12
  11        3          1          12
  12        1          0        
************************************************************************
REQUESTS/DURATIONS:
jobnr. mode duration  R 1  R 2  N 1  N 2
------------------------------------------------------------------------
  1      1     0       0    0    0    0
  2      1     6       8    0    0    3
         2     7       0    6    3    0
         3     9       8    0    0    2
  3      1     1       0    3    0    3
         2     2       2    0    7    0
         3     7       0    1    7    0
  4      1     3       9    0    6    0
         2     6       0    7    3    0
         3    10       7    0    0    4
  5      1     3       0    5    4    0
         2     7       0    4    3    0
         3     8       0    3    3    0
  6      1     1       5    0    6    0
         2     7       3    0    0    7
         3     9       3    0    4    0
  7      1     4       0    2    0    5
         2     7       8    0    0    5
         3    10       7    0    8    0
  8      1     1       3    0    7    0
         2     2       1    0    4    0
         3     3       0    2    2    0
  9      1     2       9    0    7    0
         2     4       7    0    0    7
         3     6       5    0    5    0
 10      1     2       0    5    0    7
         2     3       0    4    3    0
         3     5       0    2    3    0
 11      1     1       5    0    6    0
         2     3       0    5    6    0
         3     3       0    7    3    0
 12      1     0       0    0    0    0
************************************************************************
RESOURCEAVAILABILITIES:
  R 1  R 2  N 1  N 2
   15   12   33   18
************************************************************************
MAXIMAL LAGS:
from  to  type  delay
    1   12   ES      0
    1    2   ES      0
    2   12   ES      0
    1    3   ES      0
    3   12   ES      0
    1    4   ES      0
    4   12   ES      0
    1    5   ES      0
    5   12   ES      0
    1    6   ES      0
    6   12   ES      0
    1    7   ES      0
    7   12   ES      0
    1    8   ES      0
    8   12   ES      0
    1    9   ES      0
    9   12   ES      0
    1   10   ES      0
   10   12   ES      0
    1   11   ES      0
   11   12   ES      0
    1   12   ES      0
    2    8   SS      9
    2    8   SE     -9
    2    8   ES     -8
    2    8   EE     -4
    2    9   SS     -9
    2    9   SE     -9
    2    9   ES     11
    2    9   EE      5
    2   10   SS     -8
    2   10   SE     -4
    2   10   ES     -3
    2   10   EE      7
    3    5   SS     -6
    3    5   SE     10
    3    5   ES     -2
    3    5   EE     -6
    3    7   SS      9
    3    7   SE      8
    3    7   ES     -4
    3    7   EE      4
    3   11   SS      3
    3   11   SE     -4
    3   11   ES    -11
    3   11   EE    -10
    4    6   SS      8
    4    6   SE      1
    4    6   ES     -4
    4    6   EE    -11
    5    9   SS    -12
    5    9   SE     -2
    5    9   ES     12
    5    9   EE     -8
    5   10   SS      8
    5   10   SE     -4
    5   10   ES     -7
    5   10   EE     11
    6   10   SS      2
    6   10   SE      5
    6   10   ES     10
    6   10   EE      1
    7    9   SS      5
    7    9   SE    -12
    7    9   ES     -9
    7    9   EE    -10
    8   11   SS     10
    8   11   SE     -8
    8   11   ES      5
    8   11   EE    -11
************************************************************************
